999999999 24 30 29 10 19 32 21 27 26
24 999999999 15 15 26 37 26 10 17 14
30 15 999999999 10 35 45 32 18 12 20
29 15 10 999999999 31 41 28 14 15 16
10 26 35 31 999999999 24 41 27 31 32
19 37 45 41 24 999999999 51 40 42 44
32 26 32 28 41 51 999999999 25 38 21
21 10 18 14 27 40 25 999999999 24 14
27 17 12 15 31 42 38 24 999999999 25
26 14 20 16 32 44 21 14 25 999999999
